8135
23, 29, 30, 7, 2, 42, 21, 17, 3, 18, 31, 22, 1, 39, 40, 38, 37, 48, 24, 5, 15, 6, 4, 43, 33, 10, 9, 8, 41, 19, 45, 32, 49, 36, 35, 34, 44, 46, 25, 12, 51, 11, 52, 14, 13, 27, 28, 26, 47, 16, 50, 20
